%Chk=coumarin_s1.chk
%Mem=12Gb
#P PBEPBE/6-31+G* NoSymm
   TD=(Nstates=2, Root=1)
   Opt

optimize S1

0 1
 C                 12.30048290  -18.72261032   -0.00739600
 C                 11.11324082  -19.45545641    0.01276100
 C                 11.15935481  -20.86597853    0.03851900
 C                 12.38311286  -21.54317655   -0.19587400
 C                 13.57323197  -20.79885451   -0.13102800
 C                 13.55383498  -19.38035838    0.03320200
 O                 14.75105305  -21.49926854    0.32457500
 C                 16.01445516  -20.86115651   -0.00551400
 C                 15.99391816  -19.40260938   -0.06128800
 C                 14.82411607  -18.69972637    0.03309300
 O                 17.00280522  -21.57654356   -0.10991200
 H                 12.27944588  -17.62673827   -0.05298700
 H                 10.14865674  -18.93851136   -0.02770500
 H                 10.22795073  -21.44174052    0.14363800
 H                 12.43855990  -22.63560964   -0.20528500
 H                 16.97196122  -18.91529334    0.02865300
 H                 14.83483408  -17.60291429   -0.05250600

--Link1--
%Chk=coumarin_s1.chk
%Mem=12Gb
#P PBEPBE/6-31+G* Geom=Checkpoint  NoSymm
   TD=(Nstates=2, Root=1, NAC)
   Freq IOp(7/32=5)

S1 frequencies and S0-S1 NAC vector

0 1



